\ LP format - for model browsing. Use MPS format to capture full model detail.
Minimize
  0 B33(0) + 0 B35(0) + 0 B37(0) + 0 B38(0) + 0 B41(0) + 0 B44(0) + 0 B47(0)
   + 0 B49(0) + 0 B51(0) + 0 B53(0) + 0 B58(0) + 0 B60(0) + 0 B63(0)
   + 0 B65(0) + 0 B66(0) + 0 B69(0) + 0 B72(0) + 0 B73(0) + 0 B75(0)
   + 0 B78(0) + 0 B79(0) + 0 B80(0) + 0 B81(0) + 0 B82(0) + 0 B83(0)
   + 0 B85(0) + 0 B86(0) + 0 B89(0) + 0 B92(0) + 0 B93(0) + 0 B94(0)
   + 0 B95(0) + 0 B96(0) + 0 B97(0) + 0 B99(0) + 0 B102(0) + 0 B103(0)
   + 0 B105(0) + 0 B108(0) + 0 B109(0) + 0 B110(0) + 0 B111(0) + 0 B113(0)
   + 0 B114(0) + 0 B117(0) + 0 B118(0) + 0 B120(0) + 0 B123(0) + 0 B124(0)
   + 0 B125(0) + 0 B126(0) + 0 B127(0) + 0 B128(0) + 0 B129(0) + 0 B131(0)
   + 0 B134(0) + 0 B137(0) + 0 B138(0) + 0 B139(0) + 0 B140(0) + 0 B141(0)
   + 0 B142(0) + 0 B143(0) + 0 B145(0) + 0 B146(0) + 0 B148(0) + 0 B149(0)
   + 0 B150(0) + 0 B153(0) + 0 B154(0) + 0 B155(0) + 0 B156(0) + 0 B157(0)
   + 0 B158(0) + 0 B159(0) + 0 B160(0) + 0 B161(0) + 0 B162(0) + 0 B163(0)
   + 0 B165(0) + 0 B166(0) + 0 B168(0) + 0 B169(0) + 0 B170(0) + 0 B171(0)
   + 0 B172(0) + 0 B173(0) + 0 B174(0) + 0 B175(0) + 0 B176(0) + 0 B177(0)
   + 0 B178(0) + 0 B179(0) + 0 B182(0) + 0 B183(0) + 0 B184(0) + 0 B185(0)
   + 0 B186(0) + 0 B187(0) + 0 B188(0) + 0 B189(0) + 0 B190(0) + 0 B191(0)
   + 0 B192(0) + 0 B193(0) + 0 B194(0) + 0 B197(0) + 0 B198(0) + 0 B199(0)
   + 0 B200(0) + 0 B201(0) + 0 B202(0) + 0 B203(0) + 0 B204(0) + 0 B205(0)
   + 0 B206(0) + 0 B207(0) + 0 B208(0) + 0 B209(0) + 0 B210(0) + 0 B211(0)
   + 0 B213(0) + 0 B214(0) + 0 B215(0) + 0 B216(0) + 0 B217(0) + 0 B218(0)
   + 0 B219(0) + 0 B220(0) + 0 B221(0) + 0 B222(0) + 0 B223(0) + 0 B224(0)
   + 0 B225(0) + 0 B227(0) + 0 B228(0) + 0 B229(0) + 0 B230(0) + 0 B231(0)
   + 0 B232(0) + 0 B233(0) + 0 B234(0) + 0 B235(0) + 0 B236(0) + 0 B237(0)
   + 0 B238(0) + 0 B239(0) + 0 B241(0) + 0 B243(0) + 0 B244(0) + 0 B245(0)
   + 0 B246(0) + 0 B247(0) + 0 B248(0) + 0 B249(0) + 0 B250(0) + 0 B251(0)
   + 0 B252(0) + 0 B253(0) + 0 B254(0) + 0 B255(0) + 0 B257(0) + I291(1)
Subject To
 c0: B0(16) + B1(14) = 1
 c1: B2(15) + B3(15) = 1
 c2: B4(12) + B5(16) + B6(14) = 1
 c3: B7(14) + B8(10) = 1
 c4: B9(13) + B10(15) = 1
 c5: B11(12) + B12(16) = 1
 c6: B13(16) + B14(14) + B15(10) = 1
 c7: B16(13) + B17(15) = 1
 c8: B18(12) + B19(14) = 1
 c9: B20(14) + B21(10) = 1
 c10: B22(13) = 1
 c11: B23(12) + B24(14) = 1
 c12: B25(16) + B26(10) = 1
 c13: B27(15) + B28(13) + B29(15) = 1
 c14: B30(12) + B31(14) + B32(16) = 1
 c15: - 1e+06 B0(16) + C258(18) <= 0
 c16: - 1e+06 B1(14) + C259(16) <= 0
 c17: - 1e+06 B2(15) + C260(16) <= 0
 c18: - 1e+06 B3(15) + C261(16) <= 0
 c19: - 1e+06 B4(12) + C262(12) <= 0
 c20: - 1e+06 B5(16) + C263(16) <= 0
 c21: - 1e+06 B6(14) + C264(14) <= 0
 c22: - 1e+06 B7(14) + C265(16) <= 0
 c23: - 1e+06 B8(10) + C266(12) <= 0
 c24: - 1e+06 B9(13) + C267(14) <= 0
 c25: - 1e+06 B10(15) + C268(16) <= 0
 c26: - 1e+06 B11(12) + C269(12) <= 0
 c27: - 1e+06 B12(16) + C270(16) <= 0
 c28: - 1e+06 B13(16) + C271(18) <= 0
 c29: - 1e+06 B14(14) + C272(16) <= 0
 c30: - 1e+06 B15(10) + C273(12) <= 0
 c31: - 1e+06 B16(13) + C274(14) <= 0
 c32: - 1e+06 B17(15) + C275(16) <= 0
 c33: - 1e+06 B18(12) + C276(12) <= 0
 c34: - 1e+06 B19(14) + C277(14) <= 0
 c35: - 1e+06 B20(14) + C278(16) <= 0
 c36: - 1e+06 B21(10) + C279(12) <= 0
 c37: - 1e+06 B22(13) + C280(14) <= 0
 c38: - 1e+06 B23(12) + C281(12) <= 0
 c39: - 1e+06 B24(14) + C282(14) <= 0
 c40: - 1e+06 B25(16) + C283(18) <= 0
 c41: - 1e+06 B26(10) + C284(12) <= 0
 c42: - 1e+06 B27(15) + C285(16) <= 0
 c43: - 1e+06 B28(13) + C286(14) <= 0
 c44: - 1e+06 B29(15) + C287(16) <= 0
 c45: - 1e+06 B30(12) + C288(12) <= 0
 c46: - 1e+06 B31(14) + C289(14) <= 0
 c47: - 1e+06 B32(16) + C290(16) <= 0
 c48: - 1e+06 B0(16) - 1e+06 B3(15) - 1e+06 B34(2) + C258(18) - C261(16)
   >= -2.999662e+06
 c49: - 1e+06 B0(16) - 1e+06 B3(15) + 1e+06 B34(2) - C258(18) + C261(16)
   >= -1.999301e+06
 c50: - 1e+06 B1(14) - 1e+06 B7(14) - 1e+06 B36(2) + C259(16) - C265(16)
   >= -2.999603e+06
 c51: - 1e+06 B1(14) - 1e+06 B7(14) + 1e+06 B36(2) - C259(16) + C265(16)
   >= -1.999012e+06
 c52: - 1e+06 B0(16) - 1e+06 B13(16) - 1e+06 B39(4) + C258(18) - C271(18)
   >= -2.999514e+06
 c53: - 1e+06 B0(16) - 1e+06 B13(16) + 1e+06 B39(4) - C258(18) + C271(18)
   >= -1.99957e+06
 c54: - 1e+06 B1(14) - 1e+06 B14(14) - 1e+06 B39(4) + C259(16) - C272(16)
   >= -2.999635e+06
 c55: - 1e+06 B1(14) - 1e+06 B14(14) + 1e+06 B39(4) - C259(16) + C272(16)
   >= -1.999115e+06
 c56: - 1e+06 B0(16) - 1e+06 B17(15) - 1e+06 B40(2) + C258(18) - C275(16)
   >= -2.999532e+06
 c57: - 1e+06 B0(16) - 1e+06 B17(15) + 1e+06 B40(2) - C258(18) + C275(16)
   >= -1.999285e+06
 c58: - 1e+06 B0(16) - 1e+06 B20(14) - 1e+06 B42(2) + C258(18) - C278(16)
   >= -2.999091e+06
 c59: - 1e+06 B0(16) - 1e+06 B20(14) + 1e+06 B42(2) - C258(18) + C278(16)
   >= -1.999241e+06
 c60: - 1e+06 B1(14) - 1e+06 B22(13) - 1e+06 B43(2) + C259(16) - C280(14)
   >= -2.999509e+06
 c61: - 1e+06 B1(14) - 1e+06 B22(13) + 1e+06 B43(2) - C259(16) + C280(14)
   >= -1.999576e+06
 c62: - 1e+06 B1(14) - 1e+06 B25(16) - 1e+06 B45(2) + C259(16) - C283(18)
   >= -2.999386e+06
 c63: - 1e+06 B1(14) - 1e+06 B25(16) + 1e+06 B45(2) - C259(16) + C283(18)
   >= -1.999638e+06
 c64: - 1e+06 B0(16) - 1e+06 B28(13) - 1e+06 B46(4) + C258(18) - C286(14)
   >= -2.999347e+06
 c65: - 1e+06 B0(16) - 1e+06 B28(13) + 1e+06 B46(4) - C258(18) + C286(14)
   >= -1.999075e+06
 c66: - 1e+06 B1(14) - 1e+06 B29(15) - 1e+06 B46(4) + C259(16) - C287(16)
   >= -2.999731e+06
 c67: - 1e+06 B1(14) - 1e+06 B29(15) + 1e+06 B46(4) - C259(16) + C287(16)
   >= -1.99948e+06
 c68: - 1e+06 B0(16) - 1e+06 B3(15) - 1e+06 B48(2) - C258(18) + C261(16)
   >= -2.999301e+06
 c69: - 1e+06 B0(16) - 1e+06 B3(15) + 1e+06 B48(2) + C258(18) - C261(16)
   >= -1.999662e+06
 c70: - 1e+06 B2(15) - 1e+06 B5(16) - 1e+06 B50(2) + C260(16) - C263(16)
   >= -2.999704e+06
 c71: - 1e+06 B2(15) - 1e+06 B5(16) + 1e+06 B50(2) - C260(16) + C263(16)
   >= -1.999612e+06
 c72: - 1e+06 B2(15) - 1e+06 B9(13) - 1e+06 B52(2) + C260(16) - C267(14)
   >= -2.999102e+06
 c73: - 1e+06 B2(15) - 1e+06 B9(13) + 1e+06 B52(2) - C260(16) + C267(14)
   >= -1.999823e+06
 c74: - 1e+06 B3(15) - 1e+06 B13(16) - 1e+06 B54(2) + C261(16) - C271(18)
   >= -2.99874e+06
 c75: - 1e+06 B3(15) - 1e+06 B13(16) + 1e+06 B54(2) - C261(16) + C271(18)
   >= -1.999687e+06
 c76: - 1e+06 B3(15) - 1e+06 B17(15) - 1e+06 B55(2) + C261(16) - C275(16)
   >= -2.999735e+06
 c77: - 1e+06 B3(15) - 1e+06 B17(15) + 1e+06 B55(2) - C261(16) + C275(16)
   >= -1.999711e+06
 c78: - 1e+06 B2(15) - 1e+06 B19(14) - 1e+06 B56(2) + C260(16) - C277(14)
   >= -2.999743e+06
 c79: - 1e+06 B2(15) - 1e+06 B19(14) + 1e+06 B56(2) - C260(16) + C277(14)
   >= -1.998855e+06
 c80: - 1e+06 B3(15) - 1e+06 B20(14) - 1e+06 B57(2) + C261(16) - C278(16)
   >= -2.999263e+06
 c81: - 1e+06 B3(15) - 1e+06 B20(14) + 1e+06 B57(2) - C261(16) + C278(16)
   >= -1.999374e+06
 c82: - 1e+06 B2(15) - 1e+06 B24(14) - 1e+06 B59(2) + C260(16) - C282(14)
   >= -2.999647e+06
 c83: - 1e+06 B2(15) - 1e+06 B24(14) + 1e+06 B59(2) - C260(16) + C282(14)
   >= -1.999585e+06
 c84: - 1e+06 B3(15) - 1e+06 B28(13) - 1e+06 B61(2) + C261(16) - C286(14)
   >= -2.999635e+06
 c85: - 1e+06 B3(15) - 1e+06 B28(13) + 1e+06 B61(2) - C261(16) + C286(14)
   >= -1.999596e+06
 c86: - 1e+06 B2(15) - 1e+06 B31(14) - 1e+06 B62(2) + C260(16) - C289(14)
   >= -2.999182e+06
 c87: - 1e+06 B2(15) - 1e+06 B31(14) + 1e+06 B62(2) - C260(16) + C289(14)
   >= -1.999626e+06
 c88: - 1e+06 B2(15) - 1e+06 B5(16) - 1e+06 B64(2) - C260(16) + C263(16)
   >= -2.999612e+06
 c89: - 1e+06 B2(15) - 1e+06 B5(16) + 1e+06 B64(2) + C260(16) - C263(16)
   >= -1.999704e+06
 c90: - 1e+06 B5(16) - 1e+06 B9(13) - 1e+06 B67(4) + C263(16) - C267(14)
   >= -2.999706e+06
 c91: - 1e+06 B5(16) - 1e+06 B9(13) + 1e+06 B67(4) - C263(16) + C267(14)
   >= -1.99965e+06
 c92: - 1e+06 B6(14) - 1e+06 B10(15) - 1e+06 B67(4) + C264(14) - C268(16)
   >= -2.999355e+06
 c93: - 1e+06 B6(14) - 1e+06 B10(15) + 1e+06 B67(4) - C264(14) + C268(16)
   >= -1.999801e+06
 c94: - 1e+06 B4(12) - 1e+06 B11(12) - 1e+06 B68(4) + C262(12) - C269(12)
   >= -2.999144e+06
 c95: - 1e+06 B4(12) - 1e+06 B11(12) + 1e+06 B68(4) - C262(12) + C269(12)
   >= -1.999553e+06
 c96: - 1e+06 B6(14) - 1e+06 B12(16) - 1e+06 B68(4) + C264(14) - C270(16)
   >= -2.999694e+06
 c97: - 1e+06 B6(14) - 1e+06 B12(16) + 1e+06 B68(4) - C264(14) + C270(16)
   >= -1.999435e+06
 c98: - 1e+06 B6(14) - 1e+06 B16(13) - 1e+06 B70(2) + C264(14) - C274(14)
   >= -2.999045e+06
 c99: - 1e+06 B6(14) - 1e+06 B16(13) + 1e+06 B70(2) - C264(14) + C274(14)
   >= -1.99934e+06
 c100: - 1e+06 B4(12) - 1e+06 B18(12) - 1e+06 B71(4) + C262(12) - C276(12)
   >= -2.999271e+06
 c101: - 1e+06 B4(12) - 1e+06 B18(12) + 1e+06 B71(4) - C262(12) + C276(12)
   >= -1.999629e+06
 c102: - 1e+06 B5(16) - 1e+06 B19(14) - 1e+06 B71(4) + C263(16) - C277(14)
   >= -2.999602e+06
 c103: - 1e+06 B5(16) - 1e+06 B19(14) + 1e+06 B71(4) - C263(16) + C277(14)
   >= -1.999448e+06
 c104: - 1e+06 B4(12) - 1e+06 B23(12) - 1e+06 B74(4) + C262(12) - C281(12)
   >= -2.999069e+06
 c105: - 1e+06 B4(12) - 1e+06 B23(12) + 1e+06 B74(4) - C262(12) + C281(12)
   >= -1.999301e+06
 c106: - 1e+06 B5(16) - 1e+06 B24(14) - 1e+06 B74(4) + C263(16) - C282(14)
   >= -2.999537e+06
 c107: - 1e+06 B5(16) - 1e+06 B24(14) + 1e+06 B74(4) - C263(16) + C282(14)
   >= -1.999113e+06
 c108: - 1e+06 B6(14) - 1e+06 B27(15) - 1e+06 B76(2) + C264(14) - C285(16)
   >= -2.999756e+06
 c109: - 1e+06 B6(14) - 1e+06 B27(15) + 1e+06 B76(2) - C264(14) + C285(16)
   >= -1.999459e+06
 c110: - 1e+06 B4(12) - 1e+06 B30(12) - 1e+06 B77(6) + C262(12) - C288(12)
   >= -2.999673e+06
 c111: - 1e+06 B4(12) - 1e+06 B30(12) + 1e+06 B77(6) - C262(12) + C288(12)
   >= -1.999518e+06
 c112: - 1e+06 B5(16) - 1e+06 B31(14) - 1e+06 B77(6) + C263(16) - C289(14)
   >= -2.999298e+06
 c113: - 1e+06 B5(16) - 1e+06 B31(14) + 1e+06 B77(6) - C263(16) + C289(14)
   >= -1.999604e+06
 c114: - 1e+06 B6(14) - 1e+06 B32(16) - 1e+06 B77(6) + C264(14) - C290(16)
   >= -2.999555e+06
 c115: - 1e+06 B6(14) - 1e+06 B32(16) + 1e+06 B77(6) - C264(14) + C290(16)
   >= -1.999631e+06
 c116: - 1e+06 B7(14) - 1e+06 B14(14) - 1e+06 B84(4) + C265(16) - C272(16)
   >= -2.99965e+06
 c117: - 1e+06 B7(14) - 1e+06 B14(14) + 1e+06 B84(4) - C265(16) + C272(16)
   >= -1.999684e+06
 c118: - 1e+06 B8(10) - 1e+06 B15(10) - 1e+06 B84(4) + C266(12) - C273(12)
   >= -2.999709e+06
 c119: - 1e+06 B8(10) - 1e+06 B15(10) + 1e+06 B84(4) - C266(12) + C273(12)
   >= -1.99977e+06
 c120: - 1e+06 B8(10) - 1e+06 B21(10) - 1e+06 B87(2) + C266(12) - C279(12)
   >= -2.999572e+06
 c121: - 1e+06 B8(10) - 1e+06 B21(10) + 1e+06 B87(2) - C266(12) + C279(12)
   >= -1.999623e+06
 c122: - 1e+06 B7(14) - 1e+06 B22(13) - 1e+06 B88(2) + C265(16) - C280(14)
   >= -2.999072e+06
 c123: - 1e+06 B7(14) - 1e+06 B22(13) + 1e+06 B88(2) - C265(16) + C280(14)
   >= -1.999664e+06
 c124: - 1e+06 B7(14) - 1e+06 B25(16) - 1e+06 B90(4) + C265(16) - C283(18)
   >= -2.99932e+06
 c125: - 1e+06 B7(14) - 1e+06 B25(16) + 1e+06 B90(4) - C265(16) + C283(18)
   >= -1.999047e+06
 c126: - 1e+06 B8(10) - 1e+06 B26(10) - 1e+06 B90(4) + C266(12) - C284(12)
   >= -2.999857e+06
 c127: - 1e+06 B8(10) - 1e+06 B26(10) + 1e+06 B90(4) - C266(12) + C284(12)
   >= -1.999275e+06
 c128: - 1e+06 B7(14) - 1e+06 B29(15) - 1e+06 B91(2) + C265(16) - C287(16)
   >= -2.999864e+06
 c129: - 1e+06 B7(14) - 1e+06 B29(15) + 1e+06 B91(2) - C265(16) + C287(16)
   >= -1.999218e+06
 c130: - 1e+06 B10(15) - 1e+06 B12(16) - 1e+06 B98(2) + C268(16) - C270(16)
   >= -2.999649e+06
 c131: - 1e+06 B10(15) - 1e+06 B12(16) + 1e+06 B98(2) - C268(16) + C270(16)
   >= -1.999731e+06
 c132: - 1e+06 B10(15) - 1e+06 B16(13) - 1e+06 B100(2) + C268(16)
   - C274(14) >= -2.99888e+06
 c133: - 1e+06 B10(15) - 1e+06 B16(13) + 1e+06 B100(2) - C268(16)
   + C274(14) >= -1.999739e+06
 c134: - 1e+06 B9(13) - 1e+06 B19(14) - 1e+06 B101(2) + C267(14) - C277(14)
   >= -2.99978e+06
 c135: - 1e+06 B9(13) - 1e+06 B19(14) + 1e+06 B101(2) - C267(14) + C277(14)
   >= -1.999523e+06
 c136: - 1e+06 B9(13) - 1e+06 B24(14) - 1e+06 B104(2) + C267(14) - C282(14)
   >= -2.999758e+06
 c137: - 1e+06 B9(13) - 1e+06 B24(14) + 1e+06 B104(2) - C267(14) + C282(14)
   >= -1.999548e+06
 c138: - 1e+06 B10(15) - 1e+06 B27(15) - 1e+06 B106(2) + C268(16)
   - C285(16) >= -2.999662e+06
 c139: - 1e+06 B10(15) - 1e+06 B27(15) + 1e+06 B106(2) - C268(16)
   + C285(16) >= -1.999501e+06
 c140: - 1e+06 B9(13) - 1e+06 B31(14) - 1e+06 B107(4) + C267(14) - C289(14)
   >= -2.999724e+06
 c141: - 1e+06 B9(13) - 1e+06 B31(14) + 1e+06 B107(4) - C267(14) + C289(14)
   >= -1.99984e+06
 c142: - 1e+06 B10(15) - 1e+06 B32(16) - 1e+06 B107(4) + C268(16)
   - C290(16) >= -2.999462e+06
 c143: - 1e+06 B10(15) - 1e+06 B32(16) + 1e+06 B107(4) - C268(16)
   + C290(16) >= -1.99973e+06
 c144: - 1e+06 B10(15) - 1e+06 B12(16) - 1e+06 B112(2) - C268(16)
   + C270(16) >= -2.999731e+06
 c145: - 1e+06 B10(15) - 1e+06 B12(16) + 1e+06 B112(2) + C268(16)
   - C270(16) >= -1.999649e+06
 c146: - 1e+06 B12(16) - 1e+06 B16(13) - 1e+06 B115(2) + C270(16)
   - C274(14) >= -2.999325e+06
 c147: - 1e+06 B12(16) - 1e+06 B16(13) + 1e+06 B115(2) - C270(16)
   + C274(14) >= -1.999532e+06
 c148: - 1e+06 B11(12) - 1e+06 B18(12) - 1e+06 B116(2) + C269(12)
   - C276(12) >= -2.999673e+06
 c149: - 1e+06 B11(12) - 1e+06 B18(12) + 1e+06 B116(2) - C269(12)
   + C276(12) >= -1.999566e+06
 c150: - 1e+06 B11(12) - 1e+06 B23(12) - 1e+06 B119(2) + C269(12)
   - C281(12) >= -2.999484e+06
 c151: - 1e+06 B11(12) - 1e+06 B23(12) + 1e+06 B119(2) - C269(12)
   + C281(12) >= -1.999006e+06
 c152: - 1e+06 B12(16) - 1e+06 B27(15) - 1e+06 B121(2) + C270(16)
   - C285(16) >= -2.999519e+06
 c153: - 1e+06 B12(16) - 1e+06 B27(15) + 1e+06 B121(2) - C270(16)
   + C285(16) >= -1.99897e+06
 c154: - 1e+06 B11(12) - 1e+06 B30(12) - 1e+06 B122(4) + C269(12)
   - C288(12) >= -2.999359e+06
 c155: - 1e+06 B11(12) - 1e+06 B30(12) + 1e+06 B122(4) - C269(12)
   + C288(12) >= -1.999442e+06
 c156: - 1e+06 B12(16) - 1e+06 B32(16) - 1e+06 B122(4) + C270(16)
   - C290(16) >= -2.999507e+06
 c157: - 1e+06 B12(16) - 1e+06 B32(16) + 1e+06 B122(4) - C270(16)
   + C290(16) >= -1.999769e+06
 c158: - 1e+06 B13(16) - 1e+06 B17(15) - 1e+06 B130(2) + C271(18)
   - C275(16) >= -2.999274e+06
 c159: - 1e+06 B13(16) - 1e+06 B17(15) + 1e+06 B130(2) - C271(18)
   + C275(16) >= -1.999716e+06
 c160: - 1e+06 B13(16) - 1e+06 B20(14) - 1e+06 B132(4) + C271(18)
   - C278(16) >= -2.99907e+06
 c161: - 1e+06 B13(16) - 1e+06 B20(14) + 1e+06 B132(4) - C271(18)
   + C278(16) >= -1.998805e+06
 c162: - 1e+06 B15(10) - 1e+06 B21(10) - 1e+06 B132(4) + C273(12)
   - C279(12) >= -2.999435e+06
 c163: - 1e+06 B15(10) - 1e+06 B21(10) + 1e+06 B132(4) - C273(12)
   + C279(12) >= -1.999418e+06
 c164: - 1e+06 B14(14) - 1e+06 B22(13) - 1e+06 B133(2) + C272(16)
   - C280(14) >= -2.999729e+06
 c165: - 1e+06 B14(14) - 1e+06 B22(13) + 1e+06 B133(2) - C272(16)
   + C280(14) >= -1.999472e+06
 c166: - 1e+06 B14(14) - 1e+06 B25(16) - 1e+06 B135(4) + C272(16)
   - C283(18) >= -2.99958e+06
 c167: - 1e+06 B14(14) - 1e+06 B25(16) + 1e+06 B135(4) - C272(16)
   + C283(18) >= -1.99975e+06
 c168: - 1e+06 B15(10) - 1e+06 B26(10) - 1e+06 B135(4) + C273(12)
   - C284(12) >= -2.999381e+06
 c169: - 1e+06 B15(10) - 1e+06 B26(10) + 1e+06 B135(4) - C273(12)
   + C284(12) >= -1.999328e+06
 c170: - 1e+06 B13(16) - 1e+06 B28(13) - 1e+06 B136(4) + C271(18)
   - C286(14) >= -2.999205e+06
 c171: - 1e+06 B13(16) - 1e+06 B28(13) + 1e+06 B136(4) - C271(18)
   + C286(14) >= -1.99951e+06
 c172: - 1e+06 B14(14) - 1e+06 B29(15) - 1e+06 B136(4) + C272(16)
   - C287(16) >= -2.999663e+06
 c173: - 1e+06 B14(14) - 1e+06 B29(15) + 1e+06 B136(4) - C272(16)
   + C287(16) >= -1.999005e+06
 c174: - 1e+06 B13(16) - 1e+06 B17(15) - 1e+06 B144(2) - C271(18)
   + C275(16) >= -2.999716e+06
 c175: - 1e+06 B13(16) - 1e+06 B17(15) + 1e+06 B144(2) + C271(18)
   - C275(16) >= -1.999274e+06
 c176: - 1e+06 B17(15) - 1e+06 B20(14) - 1e+06 B147(2) + C275(16)
   - C278(16) >= -2.999588e+06
 c177: - 1e+06 B17(15) - 1e+06 B20(14) + 1e+06 B147(2) - C275(16)
   + C278(16) >= -1.999315e+06
 c178: - 1e+06 B16(13) - 1e+06 B27(15) - 1e+06 B151(4) + C274(14)
   - C285(16) >= -2.999669e+06
 c179: - 1e+06 B16(13) - 1e+06 B27(15) + 1e+06 B151(4) - C274(14)
   + C285(16) >= -1.999658e+06
 c180: - 1e+06 B17(15) - 1e+06 B28(13) - 1e+06 B151(4) + C275(16)
   - C286(14) >= -2.999886e+06
 c181: - 1e+06 B17(15) - 1e+06 B28(13) + 1e+06 B151(4) - C275(16)
   + C286(14) >= -1.999051e+06
 c182: - 1e+06 B16(13) - 1e+06 B32(16) - 1e+06 B152(2) + C274(14)
   - C290(16) >= -2.999399e+06
 c183: - 1e+06 B16(13) - 1e+06 B32(16) + 1e+06 B152(2) - C274(14)
   + C290(16) >= -1.999753e+06
 c184: - 1e+06 B18(12) - 1e+06 B23(12) - 1e+06 B164(4) + C276(12)
   - C281(12) >= -2.999376e+06
 c185: - 1e+06 B18(12) - 1e+06 B23(12) + 1e+06 B164(4) - C276(12)
   + C281(12) >= -1.999085e+06
 c186: - 1e+06 B19(14) - 1e+06 B24(14) - 1e+06 B164(4) + C277(14)
   - C282(14) >= -2.999873e+06
 c187: - 1e+06 B19(14) - 1e+06 B24(14) + 1e+06 B164(4) - C277(14)
   + C282(14) >= -1.999706e+06
 c188: - 1e+06 B18(12) - 1e+06 B30(12) - 1e+06 B167(4) + C276(12)
   - C288(12) >= -2.999815e+06
 c189: - 1e+06 B18(12) - 1e+06 B30(12) + 1e+06 B167(4) - C276(12)
   + C288(12) >= -1.999493e+06
 c190: - 1e+06 B19(14) - 1e+06 B31(14) - 1e+06 B167(4) + C277(14)
   - C289(14) >= -2.999628e+06
 c191: - 1e+06 B19(14) - 1e+06 B31(14) + 1e+06 B167(4) - C277(14)
   + C289(14) >= -1.99965e+06
 c192: - 1e+06 B21(10) - 1e+06 B26(10) - 1e+06 B180(2) + C279(12)
   - C284(12) >= -2.99912e+06
 c193: - 1e+06 B21(10) - 1e+06 B26(10) + 1e+06 B180(2) - C279(12)
   + C284(12) >= -1.999592e+06
 c194: - 1e+06 B20(14) - 1e+06 B28(13) - 1e+06 B181(2) + C278(16)
   - C286(14) >= -2.99933e+06
 c195: - 1e+06 B20(14) - 1e+06 B28(13) + 1e+06 B181(2) - C278(16)
   + C286(14) >= -1.999693e+06
 c196: - 1e+06 B22(13) - 1e+06 B25(16) - 1e+06 B195(2) + C280(14)
   - C283(18) >= -2.999653e+06
 c197: - 1e+06 B22(13) - 1e+06 B25(16) + 1e+06 B195(2) - C280(14)
   + C283(18) >= -1.999591e+06
 c198: - 1e+06 B22(13) - 1e+06 B29(15) - 1e+06 B196(2) + C280(14)
   - C287(16) >= -2.999549e+06
 c199: - 1e+06 B22(13) - 1e+06 B29(15) + 1e+06 B196(2) - C280(14)
   + C287(16) >= -1.999665e+06
 c200: - 1e+06 B23(12) - 1e+06 B30(12) - 1e+06 B212(4) + C281(12)
   - C288(12) >= -2.99945e+06
 c201: - 1e+06 B23(12) - 1e+06 B30(12) + 1e+06 B212(4) - C281(12)
   + C288(12) >= -1.999253e+06
 c202: - 1e+06 B24(14) - 1e+06 B31(14) - 1e+06 B212(4) + C282(14)
   - C289(14) >= -2.999484e+06
 c203: - 1e+06 B24(14) - 1e+06 B31(14) + 1e+06 B212(4) - C282(14)
   + C289(14) >= -1.999435e+06
 c204: - 1e+06 B25(16) - 1e+06 B29(15) - 1e+06 B226(2) + C283(18)
   - C287(16) >= -2.999419e+06
 c205: - 1e+06 B25(16) - 1e+06 B29(15) + 1e+06 B226(2) - C283(18)
   + C287(16) >= -1.99941e+06
 c206: - 1e+06 B25(16) - 1e+06 B29(15) - 1e+06 B240(2) - C283(18)
   + C287(16) >= -2.99941e+06
 c207: - 1e+06 B25(16) - 1e+06 B29(15) + 1e+06 B240(2) + C283(18)
   - C287(16) >= -1.999419e+06
 c208: - 1e+06 B27(15) - 1e+06 B32(16) - 1e+06 B242(2) + C285(16)
   - C290(16) >= -2.99927e+06
 c209: - 1e+06 B27(15) - 1e+06 B32(16) + 1e+06 B242(2) - C285(16)
   + C290(16) >= -1.999658e+06
 c210: - 1e+06 B27(15) - 1e+06 B32(16) - 1e+06 B256(2) - C285(16)
   + C290(16) >= -2.999658e+06
 c211: - 1e+06 B27(15) - 1e+06 B32(16) + 1e+06 B256(2) + C285(16)
   - C290(16) >= -1.99927e+06
 c212: C258(18) >= 0
 c213: C259(16) >= 0
 c214: C260(16) >= 0
 c215: C261(16) >= 0
 c216: C262(12) >= 0
 c217: - 480 B4(12) + C262(12) >= 0
 c218: C263(16) >= 0
 c219: - 480 B5(16) + C263(16) >= 0
 c220: C264(14) >= 0
 c221: - 480 B6(14) + C264(14) >= 0
 c222: C265(16) >= 0
 c223: C266(12) >= 0
 c224: C267(14) >= 0
 c225: C268(16) >= 0
 c226: C269(12) >= 0
 c227: - 480 B11(12) + C269(12) >= 0
 c228: C270(16) >= 0
 c229: - 480 B12(16) + C270(16) >= 0
 c230: C271(18) >= 0
 c231: C272(16) >= 0
 c232: C273(12) >= 0
 c233: C274(14) >= 0
 c234: C275(16) >= 0
 c235: C276(12) >= 0
 c236: - 480 B18(12) + C276(12) >= 0
 c237: C277(14) >= 0
 c238: - 480 B19(14) + C277(14) >= 0
 c239: C278(16) >= 0
 c240: C279(12) >= 0
 c241: C280(14) >= 0
 c242: C281(12) >= 0
 c243: - 480 B23(12) + C281(12) >= 0
 c244: C282(14) >= 0
 c245: - 480 B24(14) + C282(14) >= 0
 c246: C283(18) >= 0
 c247: C284(12) >= 0
 c248: C285(16) >= 0
 c249: C286(14) >= 0
 c250: C287(16) >= 0
 c251: C288(12) >= 0
 c252: - 480 B30(12) + C288(12) >= 0
 c253: C289(14) >= 0
 c254: - 480 B31(14) + C289(14) >= 0
 c255: C290(16) >= 0
 c256: - 480 B32(16) + C290(16) >= 0
 c257: - 130 B2(15) - 140 B3(15) + C258(18) + C259(16) - C260(16)
   - C261(16) >= 0
 c258: - 147 B4(12) - 122 B5(16) - 145 B6(14) + C260(16) + C261(16)
   - C262(12) - C263(16) - C264(14) >= 0
 c259: - 66 B9(13) - 87 B10(15) + C265(16) + C266(12) - C267(14) - C268(16)
   >= 0
 c260: - 214 B11(12) - 150 B12(16) + C267(14) + C268(16) - C269(12)
   - C270(16) >= 0
 c261: - 180 B16(13) - 105 B17(15) + C271(18) + C272(16) + C273(12)
   - C274(14) - C275(16) >= 0
 c262: - 87 B18(12) - 62 B19(14) + C274(14) + C275(16) - C276(12)
   - C277(14) >= 0
 c263: - 173 B22(13) + C278(16) + C279(12) - C280(14) >= 0
 c264: - 87 B23(12) - 65 B24(14) + C280(14) - C281(12) - C282(14) >= 0
 c265: - 86 B27(15) - 65 B28(13) - 47 B29(15) + C283(18) + C284(12)
   - C285(16) - C286(14) - C287(16) >= 0
 c266: - 128 B30(12) - 122 B31(14) - 145 B32(16) + C285(16) + C286(14)
   + C287(16) - C288(12) - C289(14) - C290(16) >= 0
 c267: 150 B0(16) + C258(18) - 1e+06 B292(4) >= -999520
 c268: 150 B0(16) + C258(18) - 1e+06 B292(4) <= 480
 c269: 160 B1(14) + C259(16) - 1e+06 B293(4) >= -999520
 c270: 160 B1(14) + C259(16) - 1e+06 B293(4) <= 480
 c271: 178 B7(14) + C265(16) - 1e+06 B294(4) >= -999520
 c272: 178 B7(14) + C265(16) - 1e+06 B294(4) <= 480
 c273: 95 B8(10) + C266(12) - 1e+06 B295(4) >= -999520
 c274: 95 B8(10) + C266(12) - 1e+06 B295(4) <= 480
 c275: 190 B13(16) + C271(18) - 1e+06 B296(4) >= -999520
 c276: 190 B13(16) + C271(18) - 1e+06 B296(4) <= 480
 c277: 100 B14(14) + C272(16) - 1e+06 B297(4) >= -999520
 c278: 100 B14(14) + C272(16) - 1e+06 B297(4) <= 480
 c279: 153 B15(10) + C273(12) - 1e+06 B298(4) >= -999520
 c280: 153 B15(10) + C273(12) - 1e+06 B298(4) <= 480
 c281: 145 B20(14) + C278(16) - 1e+06 B299(4) >= -999520
 c282: 145 B20(14) + C278(16) - 1e+06 B299(4) <= 480
 c283: 136 B21(10) + C279(12) - 1e+06 B300(4) >= -999520
 c284: 136 B21(10) + C279(12) - 1e+06 B300(4) <= 480
 c285: 110 B25(16) + C283(18) - 1e+06 B301(4) >= -999520
 c286: 110 B25(16) + C283(18) - 1e+06 B301(4) <= 480
 c287: 85 B26(10) + C284(12) - 1e+06 B302(4) >= -999520
 c288: 85 B26(10) + C284(12) - 1e+06 B302(4) <= 480
 qc0: I291(1) + 330 B292(4) + 320 B293(4) + 302 B294(4) + 385 B295(4)
   + 290 B296(4) + 380 B297(4) + 327 B298(4) + 335 B299(4) + 344 B300(4)
   + 370 B301(4) + 395 B302(4) + [ - C258(18) * B292(4)
   - C259(16) * B293(4) - C265(16) * B294(4) - C266(12) * B295(4)
   - C271(18) * B296(4) - C272(16) * B297(4) - C273(12) * B298(4)
   - C278(16) * B299(4) - C279(12) * B300(4) - C283(18) * B301(4)
   - C284(12) * B302(4) ] >= 0
Bounds
Binaries
 B0(16) B1(14) B2(15) B3(15) B4(12) B5(16) B6(14) B7(14) B8(10) B9(13)
 B10(15) B11(12) B12(16) B13(16) B14(14) B15(10) B16(13) B17(15) B18(12)
 B19(14) B20(14) B21(10) B22(13) B23(12) B24(14) B25(16) B26(10) B27(15)
 B28(13) B29(15) B30(12) B31(14) B32(16) B33(0) B34(2) B35(0) B36(2) B37(0)
 B38(0) B39(4) B40(2) B41(0) B42(2) B43(2) B44(0) B45(2) B46(4) B47(0)
 B48(2) B49(0) B50(2) B51(0) B52(2) B53(0) B54(2) B55(2) B56(2) B57(2)
 B58(0) B59(2) B60(0) B61(2) B62(2) B63(0) B64(2) B65(0) B66(0) B67(4)
 B68(4) B69(0) B70(2) B71(4) B72(0) B73(0) B74(4) B75(0) B76(2) B77(6)
 B78(0) B79(0) B80(0) B81(0) B82(0) B83(0) B84(4) B85(0) B86(0) B87(2)
 B88(2) B89(0) B90(4) B91(2) B92(0) B93(0) B94(0) B95(0) B96(0) B97(0)
 B98(2) B99(0) B100(2) B101(2) B102(0) B103(0) B104(2) B105(0) B106(2)
 B107(4) B108(0) B109(0) B110(0) B111(0) B112(2) B113(0) B114(0) B115(2)
 B116(2) B117(0) B118(0) B119(2) B120(0) B121(2) B122(4) B123(0) B124(0)
 B125(0) B126(0) B127(0) B128(0) B129(0) B130(2) B131(0) B132(4) B133(2)
 B134(0) B135(4) B136(4) B137(0) B138(0) B139(0) B140(0) B141(0) B142(0)
 B143(0) B144(2) B145(0) B146(0) B147(2) B148(0) B149(0) B150(0) B151(4)
 B152(2) B153(0) B154(0) B155(0) B156(0) B157(0) B158(0) B159(0) B160(0)
 B161(0) B162(0) B163(0) B164(4) B165(0) B166(0) B167(4) B168(0) B169(0)
 B170(0) B171(0) B172(0) B173(0) B174(0) B175(0) B176(0) B177(0) B178(0)
 B179(0) B180(2) B181(2) B182(0) B183(0) B184(0) B185(0) B186(0) B187(0)
 B188(0) B189(0) B190(0) B191(0) B192(0) B193(0) B194(0) B195(2) B196(2)
 B197(0) B198(0) B199(0) B200(0) B201(0) B202(0) B203(0) B204(0) B205(0)
 B206(0) B207(0) B208(0) B209(0) B210(0) B211(0) B212(4) B213(0) B214(0)
 B215(0) B216(0) B217(0) B218(0) B219(0) B220(0) B221(0) B222(0) B223(0)
 B224(0) B225(0) B226(2) B227(0) B228(0) B229(0) B230(0) B231(0) B232(0)
 B233(0) B234(0) B235(0) B236(0) B237(0) B238(0) B239(0) B240(2) B241(0)
 B242(2) B243(0) B244(0) B245(0) B246(0) B247(0) B248(0) B249(0) B250(0)
 B251(0) B252(0) B253(0) B254(0) B255(0) B256(2) B257(0) B292(4) B293(4)
 B294(4) B295(4) B296(4) B297(4) B298(4) B299(4) B300(4) B301(4) B302(4)
Generals
 I291(1)
End
